proyfinal/src/viki/013/experimentInOfficeAgust.take6.output/e20535aa-fa71-449f-904f-b1e4910843c3.als.dat
{'cnf.clauses': '118081',
 'cnf.totvars': '69608',
 'conflict literals': '55',
 'conflicts': '29',
 'decisions': '9948',
 'memused.mb': '15.76',
 'outcome': 'UNSAT',
 'propagations': '38856',
 'restarts': '1',
 'solver.msecs': 34,
 'task.msecs': 78}
