proyfinal/src/viki/013/experimentInOfficeAgust.take6.output/e20535aa-fa71-449f-904f-b1e4910843c3.als.out
Reading from standard input... Use '--help' for help.
============================[ Problem Statistics ]=============================
|                                                                             |
|  Number of variables:         69608                                         |
|  Number of clauses:          118081                                         |
|  Parse time:                   0.02 s                                       |
|                                                                             |
============================[ Search Statistics ]==============================
| Conflicts |          ORIGINAL         |          LEARNT          | Progress |
|           |    Vars  Clauses Literals |    Limit  Clauses Lit/Cl |          |
===============================================================================
===============================================================================
restarts              : 1
conflicts             : 29             (835 /sec)
decisions             : 9948           (0.00 % random) (286413 /sec)
propagations          : 38856          (1118706 /sec)
conflict literals     : 55             (0.00 % deleted)
Memory used           : 15.76 MB
CPU time              : 0.034733 s

UNSATISFIABLE
